50

99 19 259
96 30 544
95 33 249
95 31 563
92 5 539
91 3 402
90 40 435
86 37 436
86 15 683
86 21 702
85 7 348
80 17 351
77 9 243
77 39 630
76 15 342
76 20 385
71 25 494
70 15 606
70 8 696
69 15 419
68 18 516
64 16 696
64 6 667
61 3 636
60 27 724
60 26 342
56 22 562
55 17 634
53 14 546
52 21 419
50 14 434
48 12 254
44 21 706
41 21 388
40 12 688
38 5 495
38 8 255
37 11 583
35 6 581
21 11 351
19 2 638
14 6 317
12 3 667
9 3 374
6 2 356
6 2 445
6 1 670
4 1 277
3 1 280
2 1 738
